p cnf 540 943
-4  1  -2  0
-7  -4  5  0
10  -7  8  0
-19  16  17  0
22  -19  20  0
-25  22  23  0
31  28  29  0
34  -31  32  0
-40  37  38  0
-43  -40  41  0
52  -49  50  0
61  -58  -59  0
67  -64  65  0
-70  67  68  0
-76  -73  -74  0
-79  -76  77  0
85  82  -83  0
-88  85  86  0
100  97  -98  0
-106  -103  -104  0
112  -109  -110  0
-121  -118  119  0
127  124  125  0
-130  -127  -128  0
136  133  134  0
-139  136  -137  0
142  -139  140  0
-148  145  -146  0
151  -148  -149  0
154  -151  152  0
157  154  155  0
-166  -163  -164  0
172  169  -170  0
175  172  -173  0
178  -175  176  0
-181  178  -179  0
-184  -181  182  0
190  187  188  0
193  -190  191  0
196  -193  -194  0
-199  196  197  0
-202  -199  200  0
205  202  203  0
-211  208  209  0
-214  -211  212  0
-217  214  215  0
-220  -217  218  0
-223  220  -221  0
229  -226  -227  0
232  -229  230  0
235  232  233  0
-238  235  236  0
-250  247  -248  0
-253  250  -251  0
-256  253  254  0
-259  -256  -257  0
-262  -259  -260  0
-268  -265  -266  0
271  -268  -269  0
-274  -271  272  0
-277  274  -275  0
280  -277  278  0
-289  286  -287  0
-292  -289  290  0
295  -292  293  0
298  295  -296  0
-301  298  299  0
-304  301  302  0
-307  -304  305  0
310  -307  -308  0
319  316  -317  0
-322  -319  320  0
-331  328  -329  0
-337  334  -335  0
340  -337  -338  0
343  340  -341  0
-346  343  -344  0
349  -346  347  0
-355  352  -353  0
-358  -355  356  0
-361  358  -359  0
-364  -361  -362  0
367  364  365  0
-376  373  374  0
-382  -379  -380  0
-385  -382  383  0
-391  -388  389  0
-394  391  392  0
-400  397  -398  0
-403  400  401  0
-406  -403  404  0
-409  406  407  0
412  -409  410  0
415  -412  -413  0
418  415  416  0
424  -421  -422  0
-430  -427  -428  0
-433  430  431  0
439  -436  -437  0
-442  439  -440  0
-445  -442  443  0
451  -448  -449  0
454  -451  452  0
-457  454  -455  0
-460  -457  458  0
-478  475  476  0
481  478  -479  0
-484  -481  -482  0
-490  487  488  0
-496  -493  494  0
502  -499  -500  0
-508  -505  -506  0
-529  -526  527  0
-532  -529  -530  0
535  -532  -533  0
5  4  1  0
5  -2  -3  0
8  7  4  0
-8  4  5  0
-11  -10  8  0
11  10  -7  0
11  8  9  0
-14  10  11  0
-17  16  -13  0
17  -13  -14  0
20  -19  -17  0
-20  19  16  0
20  16  17  0
20  17  -18  0
-23  22  20  0
-23  19  -20  0
23  -20  21  0
26  25  -23  0
26  -25  -22  0
-26  -23  24  0
29  25  26  0
-32  -31  -28  0
-32  28  29  0
32  -29  30  0
35  34  31  0
-35  31  -32  0
-35  32  33  0
38  37  35  0
-38  34  -35  0
38  -35  -36  0
41  -38  -39  0
44  43  -41  0
44  43  -40  0
44  41  42  0
-47  -46  44  0
47  -44  45  0
-50  49  -47  0
50  -49  -46  0
50  -46  47  0
-50  47  48  0
53  52  -50  0
53  49  -50  0
56  55  53  0
-56  52  -53  0
-56  -53  54  0
59  -55  -56  0
62  61  59  0
62  -61  -58  0
62  -58  59  0
-62  -59  60  0
65  -64  62  0
-65  -61  62  0
-65  -62  -63  0
-68  -67  64  0
68  64  -65  0
-68  -65  -66  0
-71  -70  -68  0
-74  73  -71  0
-74  71  72  0
77  -76  -73  0
-77  -74  -75  0
-80  79  -77  0
83  -82  79  0
83  -79  -80  0
83  -80  -81  0
-86  82  83  0
-86  83  -84  0
92  -91  89  0
-92  88  89  0
-95  94  -91  0
-95  -91  -92  0
-98  97  95  0
-98  94  -95  0
-98  -95  -96  0
-101  100  98  0
101  -100  -97  0
-104  -103  -101  0
-104  103  -100  0
-104  101  102  0
107  -106  104  0
107  106  -103  0
107  -104  -105  0
-110  109  -106  0
110  -107  108  0
113  112  109  0
113  -109  110  0
113  110  -111  0
-116  115  -113  0
116  115  -112  0
-116  -112  -113  0
116  113  114  0
-119  118  -116  0
-119  118  115  0
-122  121  119  0
-122  121  118  0
122  -118  119  0
-122  -119  120  0
-125  124  -122  0
128  127  -125  0
-128  127  124  0
128  -124  125  0
-131  130  127  0
131  -127  -128  0
134  -133  -131  0
-134  130  -131  0
-137  -136  133  0
137  133  134  0
137  -134  135  0
140  139  136  0
140  137  138  0
-143  -139  140  0
146  -142  143  0
149  -145  146  0
149  -146  147  0
152  151  149  0
-152  -151  148  0
-152  -149  -150  0
-155  -154  -152  0
-155  -154  151  0
155  -152  -153  0
-158  -157  -155  0
-158  155  -156  0
161  -158  -159  0
164  163  161  0
164  -163  -160  0
164  160  -161  0
164  -161  -162  0
167  -166  164  0
170  166  167  0
170  -167  -168  0
173  170  -171  0
-176  175  -173  0
-176  175  172  0
176  -173  174  0
-179  -178  176  0
179  178  -175  0
-179  -175  176  0
-182  -181  -179  0
182  -181  178  0
182  -178  179  0
-182  -179  -180  0
185  184  -182  0
185  -181  -182  0
-188  187  185  0
-188  187  -184  0
-188  -184  -185  0
191  -190  188  0
191  -190  -187  0
-191  -187  -188  0
-191  -188  189  0
-194  193  -190  0
194  -190  191  0
194  -191  192  0
-197  196  -194  0
197  196  193  0
-197  193  -194  0
-200  -199  197  0
200  -199  -196  0
-200  -197  -198  0
-203  -202  -200  0
-203  -202  199  0
206  -205  -203  0
206  -205  -202  0
-209  208  206  0
-209  -206  -207  0
212  -211  -209  0
212  211  -208  0
-212  -208  209  0
-215  -214  -211  0
215  -211  212  0
-218  217  -215  0
-218  -217  214  0
-221  220  -218  0
-221  220  -217  0
-221  217  218  0
221  218  219  0
224  223  221  0
224  -223  220  0
-224  220  221  0
-224  -221  -222  0
227  -226  -224  0
-227  224  225  0
-230  -229  -227  0
-230  229  226  0
-230  226  227  0
-230  227  -228  0
-233  232  230  0
-233  230  231  0
-236  -235  -233  0
-236  -232  -233  0
236  -233  -234  0
239  238  -236  0
239  -238  235  0
239  -235  236  0
239  236  237  0
-242  -241  239  0
-242  239  240  0
245  -244  -241  0
245  241  -242  0
-245  -242  -243  0
248  247  -245  0
-248  -244  -245  0
-251  250  -248  0
251  -247  -248  0
-251  248  -249  0
254  253  -251  0
254  253  -250  0
254  250  251  0
254  -251  -252  0
257  -256  -253  0
257  253  254  0
257  254  -255  0
-260  -259  -257  0
260  259  256  0
260  256  -257  0
-260  257  -258  0
263  262  -260  0
263  262  259  0
263  -259  260  0
-263  260  261  0
266  265  262  0
266  262  263  0
269  265  266  0
272  -271  -268  0
-272  -269  270  0
275  -274  -271  0
278  -277  274  0
-278  274  -275  0
278  275  276  0
281  280  278  0
-281  -280  277  0
-281  -277  -278  0
281  -278  -279  0
-284  283  281  0
-284  283  280  0
-284  -280  -281  0
-284  281  282  0
-287  -286  284  0
287  286  283  0
290  289  287  0
290  -289  -286  0
-290  -287  -288  0
-293  -292  -290  0
293  -292  -289  0
-293  290  -291  0
-296  295  293  0
-296  -295  -292  0
296  292  293  0
-299  298  296  0
299  298  -295  0
-302  301  298  0
302  298  -299  0
-302  -299  -300  0
305  304  302  0
308  -307  -305  0
-308  -304  -305  0
-311  310  -308  0
-311  310  -307  0
-311  308  -309  0
-314  313  311  0
314  -313  310  0
314  -310  311  0
317  -316  314  0
317  -316  313  0
317  -313  -314  0
-317  314  -315  0
-320  319  317  0
-320  319  316  0
320  316  317  0
323  -322  320  0
-326  -325  323  0
326  323  324  0
-329  328  326  0
329  -326  327  0
-332  331  -329  0
335  334  -331  0
-335  331  -332  0
-335  -332  -333  0
-338  -337  334  0
-338  -334  -335  0
341  340  338  0
-341  337  338  0
-341  -338  339  0
-344  343  341  0
-344  -343  340  0
344  340  -341  0
-347  346  -343  0
-347  343  344  0
347  -344  345  0
-350  -349  347  0
350  -346  -347  0
353  352  350  0
353  352  349  0
-353  350  -351  0
356  -352  353  0
356  -353  -354  0
-359  -358  -356  0
-359  358  -355  0
359  355  -356  0
359  -356  357  0
-362  -358  359  0
-365  364  361  0
365  -361  -362  0
-365  362  -363  0
-368  -367  365  0
368  367  -364  0
368  -364  365  0
-368  -365  366  0
371  367  -368  0
-371  -368  -369  0
374  -373  371  0
374  -373  -370  0
374  -370  -371  0
-374  -371  -372  0
-377  -376  374  0
-377  -376  -373  0
377  -373  -374  0
-377  374  375  0
-380  -379  -377  0
380  379  -376  0
380  -376  377  0
-380  -377  378  0
383  -382  -380  0
383  382  -379  0
-383  379  -380  0
-383  380  -381  0
386  385  383  0
386  382  -383  0
386  383  -384  0
389  -388  386  0
389  -385  -386  0
-389  -386  -387  0
-392  391  -389  0
392  -391  388  0
-392  -388  -389  0
-395  -394  -392  0
395  394  -391  0
-395  391  392  0
-395  392  393  0
398  397  -395  0
-398  397  -394  0
398  -394  -395  0
-398  -395  396  0
-401  398  -399  0
-404  -403  -401  0
404  -400  401  0
-407  -406  -404  0
-407  406  -403  0
-407  403  -404  0
407  404  405  0
410  -409  407  0
410  409  406  0
-410  407  -408  0
413  -412  410  0
-413  412  -409  0
413  409  -410  0
413  410  -411  0
-416  -415  -413  0
416  -412  413  0
416  -413  414  0
419  -418  416  0
419  418  415  0
-419  -416  -417  0
422  421  -419  0
-422  -421  418  0
422  -418  -419  0
425  424  -421  0
425  422  -423  0
-428  -427  -425  0
428  -427  424  0
-428  -425  426  0
-431  430  -428  0
-431  430  427  0
-431  -428  -429  0
434  433  431  0
-434  -433  -430  0
434  430  -431  0
-434  431  -432  0
-437  436  433  0
-437  -433  -434  0
-440  439  -437  0
-440  439  -436  0
-440  436  -437  0
443  -442  -440  0
443  -439  -440  0
443  -440  441  0
446  442  -443  0
449  445  -446  0
449  -446  447  0
452  -451  -449  0
-452  -451  -448  0
-452  -449  450  0
455  -454  451  0
455  451  -452  0
-455  452  453  0
-458  457  455  0
458  454  455  0
-458  455  -456  0
461  460  -458  0
-461  460  457  0
461  -458  459  0
464  463  461  0
-464  460  461  0
-467  -466  464  0
-467  463  464  0
470  -469  466  0
470  467  468  0
-473  -472  -470  0
473  -472  469  0
-473  -470  -471  0
-476  -472  -473  0
-476  473  -474  0
479  -475  476  0
-482  481  478  0
-485  -484  481  0
-485  -481  -482  0
485  -482  -483  0
-488  487  485  0
488  -487  -484  0
488  -485  486  0
491  -490  488  0
491  -490  -487  0
491  -488  -489  0
494  493  491  0
494  493  -490  0
494  490  -491  0
-497  496  494  0
-497  -496  493  0
-497  -493  494  0
497  494  -495  0
-500  499  497  0
500  499  496  0
-500  -497  -498  0
503  502  -500  0
-503  502  -499  0
-503  -499  -500  0
503  500  -501  0
-506  -502  503  0
-509  508  506  0
-509  -508  -505  0
509  505  506  0
-509  506  -507  0
512  511  -508  0
512  508  -509  0
-515  -514  -512  0
515  514  511  0
515  511  512  0
-518  -517  -514  0
-518  514  515  0
-518  515  -516  0
521  -520  -517  0
-521  517  -518  0
521  -518  -519  0
-524  523  -521  0
-527  526  524  0
527  -526  523  0
-527  523  -524  0
-527  524  525  0
-530  529  526  0
-530  526  527  0
530  -527  528  0
-533  532  -530  0
533  532  -529  0
533  -529  530  0
533  530  531  0
-536  535  -533  0
-536  -535  532  0
-536  -532  -533  0
-536  533  -534  0
539  538  -535  0
-539  535  536  0
-6  5  3  0
6  5  2  0
-6  -2  -3  0
-9  -8  6  0
9  -8  -5  0
12  11  9  0
12  -11  -8  0
-12  -8  -9  0
-15  14  12  0
-15  -14  11  0
15  -11  -12  0
-18  -17  -14  0
-18  14  -15  0
-21  -20  18  0
21  20  17  0
24  23  -20  0
27  -26  24  0
-30  29  -26  0
-30  -26  27  0
33  -32  29  0
-36  35  33  0
36  32  33  0
-39  -38  36  0
-39  38  -35  0
39  35  36  0
42  -41  -39  0
-42  41  38  0
42  38  39  0
-45  44  42  0
-48  47  -44  0
48  -44  -45  0
51  -50  -47  0
-54  -53  51  0
54  53  50  0
54  -50  -51  0
-57  -56  -54  0
-57  -53  54  0
-60  59  -57  0
60  -56  -57  0
63  -62  60  0
63  62  -59  0
-63  59  60  0
-66  -65  -63  0
66  65  -62  0
66  62  63  0
-69  -65  66  0
72  -71  69  0
72  -68  -69  0
-75  -74  71  0
-75  -71  -72  0
-78  -77  -74  0
78  -74  -75  0
-81  80  77  0
-81  77  78  0
-84  83  -81  0
-84  -83  80  0
-84  -80  -81  0
87  86  83  0
-87  -83  84  0
90  89  86  0
90  86  87  0
93  -92  -89  0
-93  -89  -90  0
96  -95  -93  0
-99  -95  96  0
-102  -101  -99  0
-102  101  -98  0
102  98  -99  0
105  104  101  0
-105  101  102  0
-108  -107  104  0
108  104  -105  0
-111  110  108  0
111  -110  -107  0
114  -113  111  0
-114  -110  111  0
-117  116  -114  0
117  116  113  0
-117  -113  -114  0
-120  -116  -117  0
123  -122  120  0
-126  -125  -123  0
-126  -125  -122  0
126  -122  -123  0
129  128  -125  0
-132  -128  -129  0
-135  -134  132  0
-135  134  -131  0
-135  -131  -132  0
-138  137  134  0
138  134  135  0
141  140  138  0
144  -143  141  0
144  143  -140  0
-147  146  143  0
-147  143  -144  0
-150  -149  -147  0
-150  -146  -147  0
153  152  149  0
153  -149  150  0
-156  -152  153  0
-159  -158  156  0
-159  158  -155  0
-159  155  156  0
-162  -158  -159  0
-165  -164  162  0
165  161  162  0
168  167  165  0
168  164  -165  0
171  -170  168  0
-171  170  -167  0
-171  -167  168  0
174  -173  170  0
174  170  171  0
-177  176  -174  0
-180  -179  176  0
-180  -176  177  0
-183  182  -180  0
-183  -179  -180  0
186  185  183  0
-186  -185  -182  0
-186  182  -183  0
189  -188  -186  0
189  -185  186  0
-192  191  189  0
192  -191  188  0
-192  188  189  0
195  194  192  0
-195  194  -191  0
195  -191  -192  0
198  197  -195  0
-198  194  -195  0
-201  200  198  0
-201  200  197  0
201  197  198  0
204  203  -201  0
204  200  201  0
-207  206  203  0
207  -203  204  0
-210  209  207  0
210  206  207  0
213  -212  -209  0
-216  -215  -213  0
-216  212  213  0
219  -218  -216  0
-219  215  216  0
222  -221  218  0
222  -218  219  0
-225  224  -222  0
-225  224  -221  0
-225  221  -222  0
-228  -227  -225  0
-228  227  -224  0
-231  230  228  0
231  -230  -227  0
231  227  -228  0
234  230  -231  0
237  -236  233  0
-237  233  -234  0
-240  -239  237  0
-240  -239  236  0
243  242  -240  0
-246  -242  243  0
-249  248  -246  0
-249  248  245  0
252  251  249  0
-252  -248  -249  0
-255  -254  252  0
-255  -254  251  0
-258  -257  -255  0
-258  257  254  0
-261  -260  -258  0
-261  -257  -258  0
264  -263  261  0
-267  -266  -264  0
-270  269  267  0
-270  -266  267  0
-273  272  -270  0
-279  278  275  0
282  -281  279  0
282  -281  -278  0
-285  284  -281  0
-285  281  -282  0
288  -287  285  0
288  -287  284  0
-294  293  290  0
-294  -290  -291  0
297  296  294  0
-297  -296  -293  0
-297  -293  294  0
-300  299  297  0
-300  -299  296  0
300  -296  297  0
306  -305  303  0
306  302  303  0
-309  305  306  0
-312  311  -309  0
312  311  308  0
312  308  -309  0
315  -314  312  0
315  311  312  0
-318  -317  -315  0
318  -317  314  0
-318  -314  -315  0
321  -320  318  0
321  320  -317  0
321  317  318  0
324  323  321  0
324  323  -320  0
-324  320  321  0
-327  -326  324  0
327  -326  323  0
-327  323  -324  0
330  329  -326  0
330  326  -327  0
-333  -332  330  0
-333  -329  330  0
336  335  333  0
-336  332  333  0
-339  338  -335  0
342  341  -339  0
342  341  338  0
342  -338  339  0
345  344  342  0
-348  347  344  0
-348  344  345  0
-351  -350  348  0
-351  -350  -347  0
-351  347  -348  0
-354  353  -350  0
357  -356  -353  0
-360  359  357  0
-360  -359  356  0
-363  -362  360  0
363  362  -359  0
366  365  363  0
-366  -362  363  0
369  368  366  0
369  368  -365  0
369  -365  -366  0
-372  371  -369  0
-372  371  368  0
375  -371  372  0
378  377  -374  0
381  380  -378  0
-381  380  -377  0
-384  383  -381  0
384  380  -381  0
-387  386  384  0
387  -386  -383  0
387  383  -384  0
390  -389  387  0
390  -389  386  0
-390  -386  387  0
393  -392  -389  0
396  -395  -393  0
-396  -392  -393  0
-399  -398  -396  0
-399  -395  396  0
-402  401  399  0
402  -401  -398  0
-402  398  399  0
405  401  402  0
408  407  -405  0
-408  -404  -405  0
-411  410  408  0
411  410  -407  0
-411  407  -408  0
-414  -413  -411  0
-414  -413  410  0
414  410  411  0
-417  416  -413  0
417  413  -414  0
-420  419  -416  0
420  416  -417  0
423  422  420  0
-423  -422  419  0
423  419  -420  0
426  -425  423  0
-426  425  -422  0
-426  -422  -423  0
429  -428  426  0
429  -428  425  0
-429  425  426  0
432  431  -429  0
-435  -434  -432  0
-435  -434  -431  0
435  431  -432  0
438  437  435  0
441  -440  438  0
-444  -443  -441  0
444  -443  440  0
-450  449  447  0
450  -449  -446  0
-450  -446  -447  0
453  452  -450  0
453  -452  449  0
-453  -449  -450  0
-456  -455  -453  0
456  -455  452  0
456  452  453  0
-459  -458  -456  0
459  458  455  0
-462  458  459  0
-468  467  465  0
471  470  468  0
-471  -470  -467  0
471  -467  -468  0
-474  -473  -471  0
-474  470  -471  0
477  -476  -473  0
477  473  -474  0
480  -479  477  0
-480  -476  477  0
-483  -482  480  0
-483  479  480  0
486  485  483  0
-486  485  -482  0
486  -482  -483  0
-489  488  -486  0
489  -488  485  0
-492  -491  -488  0
-492  -488  -489  0
-495  494  -491  0
495  491  492  0
498  497  495  0
498  -497  494  0
501  -500  -497  0
-501  -497  -498  0
504  -503  -501  0
504  -500  -501  0
-507  506  503  0
-507  503  504  0
-510  -509  507  0
510  506  -507  0
513  -512  510  0
513  512  509  0
-516  515  -513  0
516  -512  -513  0
519  518  516  0
-519  518  515  0
-519  -515  516  0
522  521  519  0
525  524  522  0
-525  524  -521  0
-525  -521  -522  0
-528  -527  -525  0
528  -527  524  0
-531  -530  528  0
-531  530  527  0
-531  527  528  0
-534  533  531  0
-534  -533  -530  0
-534  -530  531  0
-537  533  -534  0
540  539  -536  0
-540  -536  537  0
